$rungauss
%chk=/home/chalabaj/snafu/ABINITIO/checkpoint.chk
%Mem=500Mb
%Nproc=2
#BLYP/6-31g* Force  guess=(Read,TCheck)

comment

0 1
 O -0.00035618 0.00000000 -0.00027827
 H -0.00066430 0.00000000 0.96569592
 H 0.93685004 0.00000000 -0.23426752
 
